; benchmark generated from python API
(set-info :status unknown)
(declare-fun DISJ_W_S1_R_S1 () Bool)
(declare-fun DISJ_W_S2_R_S1 () Bool)
(declare-fun W_S2_V3 () Bool)
(declare-fun W_S1_V5 () Bool)
(declare-fun R_S2_V4 () Bool)
(declare-fun R_S1_V1 () Bool)
(declare-fun W_S2_V5 () Bool)
(declare-fun DISJ_W_S1_R_S2 () Bool)
(declare-fun W_S1_V4 () Bool)
(declare-fun R_S1_V4 () Bool)
(declare-fun R_S1_V5 () Bool)
(declare-fun R_S2_V3 () Bool)
(declare-fun DISJ_W_S1_W_S2 () Bool)
(declare-fun DISJ_W_S2_R_S2 () Bool)
(declare-fun R_E1_V4 () Bool)
(declare-fun R_E1_V5 () Bool)
(declare-fun W_S2_V2 () Bool)
(declare-fun W_S2_V1 () Bool)
(declare-fun R_S2_V5 () Bool)
(declare-fun R_S2_V2 () Bool)
(declare-fun R_S2_V1 () Bool)
(declare-fun R_S1_V2 () Bool)
(declare-fun R_S1_V3 () Bool)
(declare-fun R_E1_V2 () Bool)
(declare-fun DISJ_W_S2_R_E1 () Bool)
(declare-fun R_E1_V3 () Bool)
(declare-fun W_S2_V4 () Bool)
(declare-fun W_S1_V3 () Bool)
(declare-fun W_S1_V2 () Bool)
(declare-fun W_S1_V1 () Bool)
(declare-fun R_E1_V1 () Bool)
(declare-fun DISJ_W_S1_R_E1 () Bool)
(assert
 (let (($x1792 (not W_S2_V3)))
 (let (($x2137 (not W_S1_V5)))
 (let (($x5785 (not R_S2_V4)))
 (let (($x3088 (not R_S1_V1)))
 (let (($x5494 (not (and $x3088 $x5785 $x2137 $x1792 DISJ_W_S2_R_S1 DISJ_W_S1_R_S1))))
 (let (($x4040 (not W_S2_V5)))
 (let (($x3630 (and $x5785 $x4040 $x1792 DISJ_W_S2_R_S1)))
 (let (($x2474 (not $x3630)))
 (let (($x1801 (not W_S1_V4)))
 (let (($x3130 (not R_S1_V4)))
 (let (($x5866 (not R_S1_V5)))
 (let (($x1034 (not (and $x5866 $x3130 $x2137 $x1801 DISJ_W_S1_R_S2))))
 (let (($x947 (not (and $x3130 $x2137 $x1801 $x4040 DISJ_W_S1_R_S2))))
 (let (($x5100 (not (and $x3088 (not R_S2_V3) $x1801 $x4040 DISJ_W_S2_R_S1 DISJ_W_S1_R_S1))))
 (let (($x3861 (not R_S2_V3)))
 (let (($x1839 (and $x3861 $x5785 $x4040 DISJ_W_S2_R_S1)))
 (let (($x230 (not $x1839)))
 (let (($x2688 (and DISJ_W_S1_R_S2 DISJ_W_S2_R_S1)))
 (let (($x2543 (not $x2688)))
 (let (($x1010 (not (and $x3088 DISJ_W_S2_R_S1 DISJ_W_S1_W_S2 DISJ_W_S1_R_S1))))
 (let (($x2537 (and DISJ_W_S2_R_S1 DISJ_W_S2_R_S2)))
 (let (($x1932 (not $x2537)))
 (let (($x5870 (not (and W_S1_V4 R_E1_V4))))
 (let (($x5719 (not (and W_S1_V5 R_E1_V5))))
 (let (($x4735 (forall ((V3_0 Int) )(forall ((V2_0 Int) )(forall ((V5_0 Int) )(forall ((V4_0 Int) )(forall ((MW_S1_V1 Bool) )(forall ((MW_S1_V3 Bool) )(forall ((MW_S1_V2 Bool) )(forall ((MW_S1_V5 Bool) )(forall ((MW_S1_V4 Bool) )(forall ((MW_S2_V1 Bool) )(forall ((MW_S2_V3 Bool) )(forall ((MW_S2_V2 Bool) )(forall ((MW_S2_V5 Bool) )(forall ((MW_S2_V4 Bool) )(forall ((S1_V1_!6074 Int) )(forall ((S1_V1_!6084 Int) )(forall ((S1_V1_!6095 Int) )(forall ((S1_V1_!6100 Int) )(forall ((S2_V5_!6082 Int) )(forall ((S2_V5_!6092 Int) )(forall ((S2_V5_!6109 Int) )(forall ((S2_V5_!6114 Int) )(forall ((S1_V3_!6075 Int) )(forall ((S1_V3_!6085 Int) )(forall ((S1_V3_!6096 Int) )(forall ((S1_V3_!6101 Int) )(forall ((S1_V2_!6076 Int) )(forall ((S1_V2_!6086 Int) )(forall ((S1_V2_!6097 Int) )(forall ((S1_V2_!6102 Int) )(forall ((E1_!6073 Int) )(forall ((E1_!6094 Int) )(forall ((E1_!6105 Int) )(forall ((S2_V4_!6083 Int) )(forall ((S2_V4_!6093 Int) )(forall ((S2_V4_!6110 Int) )(forall ((S2_V4_!6115 Int) )(forall ((S1_V5_!6077 Int) )(forall ((S1_V5_!6087 Int) )(forall ((S1_V5_!6098 Int) )(forall ((S1_V5_!6103 Int) )(forall ((S2_V1_!6079 Int) )(forall ((S2_V1_!6089 Int) )(forall ((S2_V1_!6106 Int) )(forall ((S2_V1_!6111 Int) )(forall ((S1_V4_!6078 Int) )(forall ((S1_V4_!6088 Int) )(forall ((S1_V4_!6099 Int) )(forall ((S1_V4_!6104 Int) )(forall ((S2_V2_!6081 Int) )(forall ((S2_V2_!6091 Int) )(forall ((S2_V2_!6108 Int) )(forall ((S2_V2_!6113 Int) )(forall ((S2_V3_!6080 Int) )(forall ((S2_V3_!6090 Int) )(forall ((S2_V3_!6107 Int) )(forall ((S2_V3_!6112 Int) )(let (($x1297 (= (ite MW_S2_V4 S2_V4_!6093 (ite MW_S1_V4 S1_V4_!6088 (ite MW_S2_V4 S2_V4_!6083 (ite MW_S1_V4 S1_V4_!6078 V4_0)))) (ite MW_S2_V4 S2_V4_!6115 (ite MW_S1_V4 S1_V4_!6104 V4_0)))))
 (let (($x1275 (= (ite MW_S2_V5 S2_V5_!6092 (ite MW_S1_V5 S1_V5_!6087 (ite MW_S2_V5 S2_V5_!6082 (ite MW_S1_V5 S1_V5_!6077 V5_0)))) (ite MW_S2_V5 S2_V5_!6114 (ite MW_S1_V5 S1_V5_!6103 V5_0)))))
 (let ((?x5420 (ite MW_S1_V2 S1_V2_!6102 V2_0)))
 (let ((?x4951 (ite MW_S2_V2 S2_V2_!6113 ?x5420)))
 (let ((?x5370 (ite MW_S1_V2 S1_V2_!6076 V2_0)))
 (let ((?x2456 (ite MW_S2_V2 S2_V2_!6081 ?x5370)))
 (let ((?x5245 (ite MW_S1_V2 S1_V2_!6086 ?x2456)))
 (let ((?x3141 (ite MW_S2_V2 S2_V2_!6091 ?x5245)))
 (let (($x3192 (= (ite MW_S2_V3 S2_V3_!6090 (ite MW_S1_V3 S1_V3_!6085 (ite MW_S2_V3 S2_V3_!6080 (ite MW_S1_V3 S1_V3_!6075 V3_0)))) (ite MW_S2_V3 S2_V3_!6112 (ite MW_S1_V3 S1_V3_!6101 V3_0)))))
 (let ((?x1750 (ite MW_S2_V1 S2_V1_!6106 E1_!6105)))
 (let ((?x4202 (+ 1 ?x1750)))
 (let ((?x5510 (ite MW_S2_V1 S2_V1_!6111 ?x4202)))
 (let ((?x1519 (ite MW_S1_V1 S1_V1_!6074 E1_!6073)))
 (let ((?x1670 (ite MW_S2_V1 S2_V1_!6079 ?x1519)))
 (let ((?x3660 (+ 1 ?x1670)))
 (let ((?x1487 (ite MW_S1_V1 S1_V1_!6084 ?x3660)))
 (let ((?x275 (ite MW_S2_V1 S2_V1_!6089 ?x1487)))
 (let (($x2270 (>= (ite MW_S1_V1 S1_V1_!6100 (+ 1 (ite MW_S1_V1 S1_V1_!6095 E1_!6094))) (+ (- 1) ?x5420))))
 (let (($x566 (and (not (<= V2_0 E1_!6073)) (not (<= ?x2456 ?x3660)) (>= ?x275 (+ (- 1) ?x3141)) (not (<= V2_0 E1_!6094)) (not (<= (ite MW_S1_V2 S1_V2_!6097 V2_0) (+ 1 (ite MW_S1_V1 S1_V1_!6095 E1_!6094)))) $x2270 (not (<= ?x5420 E1_!6105)) (not (<= (ite MW_S2_V2 S2_V2_!6108 ?x5420) ?x4202)) (>= ?x5510 (+ (- 1) ?x4951)))))
 (let (($x5935 (= S2_V3_!6112 S2_V3_!6090)))
 (let ((?x2799 (ite MW_S1_V4 S1_V4_!6078 V4_0)))
 (let ((?x2636 (ite MW_S2_V4 S2_V4_!6083 ?x2799)))
 (let ((?x50 (ite MW_S1_V4 S1_V4_!6088 ?x2636)))
 (let ((?x3750 (ite MW_S1_V4 S1_V4_!6104 V4_0)))
 (let ((?x2937 (ite MW_S2_V4 S2_V4_!6110 ?x3750)))
 (let (($x5785 (not R_S2_V4)))
 (let ((?x666 (ite MW_S1_V5 S1_V5_!6077 V5_0)))
 (let ((?x4764 (ite MW_S2_V5 S2_V5_!6082 ?x666)))
 (let ((?x2691 (ite MW_S1_V5 S1_V5_!6087 ?x4764)))
 (let ((?x3777 (ite MW_S1_V5 S1_V5_!6103 V5_0)))
 (let ((?x4676 (ite MW_S2_V5 S2_V5_!6109 ?x3777)))
 (let (($x5098 (not R_S2_V5)))
 (let ((?x5923 (ite MW_S1_V3 S1_V3_!6075 V3_0)))
 (let ((?x263 (ite MW_S2_V3 S2_V3_!6080 ?x5923)))
 (let ((?x3739 (ite MW_S1_V3 S1_V3_!6085 ?x263)))
 (let ((?x3995 (ite MW_S1_V3 S1_V3_!6101 V3_0)))
 (let ((?x7 (ite MW_S2_V3 S2_V3_!6107 ?x3995)))
 (let (($x3861 (not R_S2_V3)))
 (let (($x3151 (and (or (not R_S2_V1) (= ?x1750 (+ (- 1) ?x1487))) (or $x3861 (= ?x7 ?x3739)) (or (not R_S2_V2) (= (ite MW_S2_V2 S2_V2_!6108 ?x5420) ?x5245)) (or $x5098 (= ?x4676 ?x2691)) (or $x5785 (= ?x2937 ?x50)))))
 (let (($x3386 (not $x3151)))
 (let (($x2383 (= S2_V3_!6112 S2_V3_!6080)))
 (let (($x2397 (and (or (not R_S2_V1) (= ?x1750 (+ (- 1) ?x1519))) (or $x3861 (= ?x7 ?x5923)) (or (not R_S2_V2) (= (ite MW_S2_V2 S2_V2_!6108 ?x5420) ?x5370)) (or $x5098 (= ?x4676 ?x666)) (or $x5785 (= ?x2937 ?x2799)))))
 (let (($x3420 (not $x2397)))
 (let (($x5317 (= S2_V3_!6107 S2_V3_!6112)))
 (let (($x3275 (and (or (not R_S2_V1) (= E1_!6105 ?x4202)) (or $x3861 (= ?x3995 ?x7)) (or (not R_S2_V2) (= ?x5420 (ite MW_S2_V2 S2_V2_!6108 ?x5420))) (or $x5098 (= ?x3777 ?x4676)) (or $x5785 (= ?x3750 ?x2937)))))
 (let (($x4522 (= S2_V3_!6107 S2_V3_!6090)))
 (let (($x3149 (and (or (not R_S2_V1) (= E1_!6105 ?x1487)) (or $x3861 (= ?x3995 ?x3739)) (or (not R_S2_V2) (= ?x5420 ?x5245)) (or $x5098 (= ?x3777 ?x2691)) (or $x5785 (= ?x3750 ?x50)))))
 (let (($x3105 (not $x3149)))
 (let (($x3110 (= S2_V3_!6107 S2_V3_!6080)))
 (let (($x2063 (and (or (not R_S2_V1) (= E1_!6105 ?x1519)) (or $x3861 (= ?x3995 ?x5923)) (or (not R_S2_V2) (= ?x5420 ?x5370)) (or $x5098 (= ?x3777 ?x666)) (or $x5785 (= ?x3750 ?x2799)))))
 (let (($x4386 (= S2_V3_!6090 S2_V3_!6080)))
 (let (($x4221 (and (or (not R_S2_V1) (= ?x1487 ?x1519)) (or $x3861 (= ?x3739 ?x5923)) (or (not R_S2_V2) (= ?x5245 ?x5370)) (or $x5098 (= ?x2691 ?x666)) (or $x5785 (= ?x50 ?x2799)))))
 (let (($x896 (not $x4221)))
 (let (($x3459 (= S2_V2_!6113 S2_V2_!6108)))
 (let (($x5769 (and (or (not R_S2_V1) (= ?x1750 (+ (- 1) E1_!6105))) (or $x3861 (= ?x7 ?x3995)) (or (not R_S2_V2) (= (ite MW_S2_V2 S2_V2_!6108 ?x5420) ?x5420)) (or $x5098 (= ?x4676 ?x3777)) (or $x5785 (= ?x2937 ?x3750)))))
 (let (($x4074 (not $x5769)))
 (let (($x3195 (= S2_V2_!6091 S2_V2_!6108)))
 (let (($x1944 (and (or (not R_S2_V1) (= ?x1487 E1_!6105)) (or $x3861 (= ?x3739 ?x3995)) (or (not R_S2_V2) (= ?x5245 ?x5420)) (or $x5098 (= ?x2691 ?x3777)) (or $x5785 (= ?x50 ?x3750)))))
 (let (($x3020 (not $x1944)))
 (let (($x6028 (= S2_V2_!6081 S2_V2_!6113)))
 (let (($x3518 (and (or (not R_S2_V1) (= ?x1519 ?x4202)) (or $x3861 (= ?x5923 ?x7)) (or (not R_S2_V2) (= ?x5370 (ite MW_S2_V2 S2_V2_!6108 ?x5420))) (or $x5098 (= ?x666 ?x4676)) (or $x5785 (= ?x2799 ?x2937)))))
 (let (($x320 (not $x3518)))
 (let (($x2756 (= S2_V2_!6081 S2_V2_!6108)))
 (let (($x98 (and (or (not R_S2_V1) (= ?x1519 E1_!6105)) (or $x3861 (= ?x5923 ?x3995)) (or (not R_S2_V2) (= ?x5370 ?x5420)) (or $x5098 (= ?x666 ?x3777)) (or $x5785 (= ?x2799 ?x3750)))))
 (let (($x2523 (not $x98)))
 (let (($x140 (= S2_V2_!6081 S2_V2_!6091)))
 (let (($x4671 (and (or (not R_S2_V1) (= ?x1519 ?x1487)) (or $x3861 (= ?x5923 ?x3739)) (or (not R_S2_V2) (= ?x5370 ?x5245)) (or $x5098 (= ?x666 ?x2691)) (or $x5785 (= ?x2799 ?x50)))))
 (let (($x2852 (not $x4671)))
 (let (($x2226 (= S1_V4_!6104 S1_V4_!6088)))
 (let (($x327 (and (or (not R_S1_V1) (= (ite MW_S1_V1 S1_V1_!6095 E1_!6094) ?x1670)) (or (not R_S1_V3) (= (ite MW_S1_V3 S1_V3_!6096 V3_0) ?x263)) (or (not R_S1_V2) (= (ite MW_S1_V2 S1_V2_!6097 V2_0) ?x2456)) (or (not R_S1_V5) (= (ite MW_S1_V5 S1_V5_!6098 V5_0) ?x4764)) (or (not R_S1_V4) (= (ite MW_S1_V4 S1_V4_!6099 V4_0) ?x2636)))))
 (let (($x2209 (not $x327)))
 (let (($x3130 (not R_S1_V4)))
 (let (($x3207 (or $x3130 (= (ite MW_S1_V4 S1_V4_!6099 V4_0) V4_0))))
 (let (($x5866 (not R_S1_V5)))
 (let (($x3352 (or $x5866 (= (ite MW_S1_V5 S1_V5_!6098 V5_0) V5_0))))
 (let (($x961 (not R_S1_V2)))
 (let (($x2362 (or $x961 (= (ite MW_S1_V2 S1_V2_!6097 V2_0) V2_0))))
 (let (($x5055 (not R_S1_V3)))
 (let (($x1752 (or $x5055 (= (ite MW_S1_V3 S1_V3_!6096 V3_0) V3_0))))
 (let (($x3342 (and (or (not R_S1_V1) (= (ite MW_S1_V1 S1_V1_!6095 E1_!6094) (+ (- 1) E1_!6073))) $x1752 $x2362 $x3352 $x3207)))
 (let (($x3234 (not $x3342)))
 (let (($x3246 (or $x3130 (= V4_0 (ite MW_S1_V4 S1_V4_!6099 V4_0)))))
 (let (($x4020 (or $x5866 (= V5_0 (ite MW_S1_V5 S1_V5_!6098 V5_0)))))
 (let (($x3100 (or $x961 (= V2_0 (ite MW_S1_V2 S1_V2_!6097 V2_0)))))
 (let (($x886 (or $x5055 (= V3_0 (ite MW_S1_V3 S1_V3_!6096 V3_0)))))
 (let (($x4156 (and (or (not R_S1_V1) (= E1_!6094 (+ 1 (ite MW_S1_V1 S1_V1_!6095 E1_!6094)))) $x886 $x3100 $x4020 $x3246)))
 (let (($x1191 (not $x4156)))
 (let (($x4996 (= S1_V4_!6099 S1_V4_!6088)))
 (let (($x4705 (or $x3130 (= V4_0 ?x2636))))
 (let (($x1030 (or $x5866 (= V5_0 ?x4764))))
 (let (($x1126 (or $x961 (= V2_0 ?x2456))))
 (let (($x5283 (or $x5055 (= V3_0 ?x263))))
 (let (($x2731 (not (and (or (not R_S1_V1) (= E1_!6094 ?x3660)) $x5283 $x1126 $x1030 $x4705))))
 (let (($x2486 (or $x3130 (= ?x2636 V4_0))))
 (let (($x5732 (or $x5866 (= ?x4764 V5_0))))
 (let (($x1843 (or $x961 (= ?x2456 V2_0))))
 (let (($x1566 (or $x5055 (= ?x263 V3_0))))
 (let (($x3021 (and (or (not R_S1_V1) (= ?x1670 (+ (- 1) E1_!6073))) $x1566 $x1843 $x5732 $x2486)))
 (let (($x2479 (not $x3021)))
 (let (($x2424 (= S2_V1_!6089 S2_V1_!6111)))
 (let (($x274 (and (or (not R_S2_V1) (= ?x1487 ?x4202)) (or $x3861 (= ?x3739 ?x7)) (or (not R_S2_V2) (= ?x5245 (ite MW_S2_V2 S2_V2_!6108 ?x5420))) (or $x5098 (= ?x2691 ?x4676)) (or $x5785 (= ?x50 ?x2937)))))
 (let (($x4264 (not $x274)))
 (let (($x5974 (= S1_V5_!6103 S1_V5_!6098)))
 (let (($x2180 (and (or (not R_S1_V1) (= (ite MW_S1_V1 S1_V1_!6095 E1_!6094) (+ (- 1) E1_!6094))) $x1752 $x2362 $x3352 $x3207)))
 (let (($x934 (not $x2180)))
 (let (($x1724 (or (not (and (or (not R_S1_V1) (= E1_!6073 ?x3660)) $x5283 $x1126 $x1030 $x4705)) (= S1_V5_!6077 S1_V5_!6087))))
 (let (($x3223 (and (or (not R_E1_V2) (= ?x5420 V2_0)) (or (not R_E1_V5) (= ?x3777 V5_0)) (or (not R_E1_V4) (= ?x3750 V4_0)))))
 (let (($x2766 (= E1_!6073 E1_!6105)))
 (let (($x1506 (and (or (not R_E1_V2) (= V2_0 ?x5420)) (or (not R_E1_V5) (= V5_0 ?x3777)) (or (not R_E1_V4) (= V4_0 ?x3750)))))
 (let (($x703 (= E1_!6073 E1_!6094)))
 (let (($x4611 (and (or (not R_S1_V1) (= ?x1670 (ite MW_S1_V1 S1_V1_!6095 E1_!6094))) (or $x5055 (= ?x263 (ite MW_S1_V3 S1_V3_!6096 V3_0))) (or $x961 (= ?x2456 (ite MW_S1_V2 S1_V2_!6097 V2_0))) (or $x5866 (= ?x4764 (ite MW_S1_V5 S1_V5_!6098 V5_0))) (or $x3130 (= ?x2636 (ite MW_S1_V4 S1_V4_!6099 V4_0))))))
 (let (($x2618 (not $x4611)))
 (let (($x2085 (and (or (not R_S1_V1) (= ?x1670 (+ (- 1) E1_!6094))) $x1566 $x1843 $x5732 $x2486)))
 (let (($x1470 (not $x2085)))
 (let (($x1229 (and (or (not R_S1_V1) (= E1_!6073 (+ 1 (ite MW_S1_V1 S1_V1_!6095 E1_!6094)))) $x886 $x3100 $x4020 $x3246)))
 (let (($x182 (not $x1229)))
 (let (($x1555 (and (or $x182 (= S1_V1_!6074 S1_V1_!6100)) (or $x2479 (= S1_V1_!6084 S1_V1_!6074)) (or $x1470 (= S1_V1_!6084 S1_V1_!6095)) (or $x2618 (= S1_V1_!6084 S1_V1_!6100)) (or (not (or (not R_S1_V1) (= E1_!6094 E1_!6073))) (= S1_V1_!6095 S1_V1_!6074)) (or $x1191 (= S1_V1_!6095 S1_V1_!6100)) (or $x2523 (= S2_V5_!6082 S2_V5_!6109)) (or $x320 (= S2_V5_!6082 S2_V5_!6114)) (or $x896 (= S2_V5_!6092 S2_V5_!6082)) (or $x3020 (= S2_V5_!6092 S2_V5_!6109)) (or $x4264 (= S2_V5_!6092 S2_V5_!6114)) (or $x4074 (= S2_V5_!6114 S2_V5_!6109)) (or (not (or (not R_S1_V1) $x703)) (= S1_V3_!6075 S1_V3_!6096)) (or $x2479 (= S1_V3_!6085 S1_V3_!6075)) (or $x1470 (= S1_V3_!6085 S1_V3_!6096)) (or $x2618 (= S1_V3_!6085 S1_V3_!6101)) (or $x3234 (= S1_V3_!6101 S1_V3_!6075)) (or $x934 (= S1_V3_!6101 S1_V3_!6096)) (or $x182 (= S1_V2_!6076 S1_V2_!6102)) (or $x2479 (= S1_V2_!6086 S1_V2_!6076)) (or $x1470 (= S1_V2_!6086 S1_V2_!6097)) (or $x2618 (= S1_V2_!6086 S1_V2_!6102)) (or (not (or (not R_S1_V1) (= E1_!6094 E1_!6073))) (= S1_V2_!6097 S1_V2_!6076)) (or $x1191 (= S1_V2_!6097 S1_V2_!6102)) $x703 (or (not $x1506) $x2766) (or (not $x3223) (= E1_!6105 E1_!6094)) (or $x2852 (= S2_V4_!6083 S2_V4_!6093)) (or $x2523 (= S2_V4_!6083 S2_V4_!6110)) (or $x3105 (= S2_V4_!6110 S2_V4_!6093)) (or $x3420 (= S2_V4_!6115 S2_V4_!6083)) (or $x3386 (= S2_V4_!6115 S2_V4_!6093)) (or $x4074 (= S2_V4_!6115 S2_V4_!6110)) $x1724 (or (not (or (not R_S1_V1) $x703)) (= S1_V5_!6077 S1_V5_!6098)) (or $x2731 (= S1_V5_!6098 S1_V5_!6087)) (or $x3234 (= S1_V5_!6103 S1_V5_!6077)) (or $x2209 (= S1_V5_!6103 S1_V5_!6087)) (or $x934 $x5974) (or $x2852 (= S2_V1_!6079 S2_V1_!6089)) (or $x2523 (= S2_V1_!6079 S2_V1_!6106)) (or $x320 (= S2_V1_!6079 S2_V1_!6111)) (or $x3020 (= S2_V1_!6089 S2_V1_!6106)) (or $x4264 $x2424) (or $x4074 (= S2_V1_!6111 S2_V1_!6106)) (or $x2479 (= S1_V4_!6088 S1_V4_!6078)) (or (not (or (not R_S1_V1) (= E1_!6094 E1_!6073))) (= S1_V4_!6099 S1_V4_!6078)) (or $x2731 $x4996) (or $x1191 (= S1_V4_!6099 S1_V4_!6104)) (or $x3234 (= S1_V4_!6104 S1_V4_!6078)) (or $x2209 $x2226) (or $x2852 $x140) (or $x2523 $x2756) (or $x320 $x6028) (or $x3020 $x3195) (or $x3386 (= S2_V2_!6113 S2_V2_!6091)) (or $x4074 $x3459) (or $x896 $x4386) (or (not $x2063) $x3110) (or $x3105 $x4522) (or (not $x3275) $x5317) (or $x3420 $x2383) (or $x3386 $x5935) (not MW_S1_V1) (not MW_S1_V2) (or (not MW_S1_V5) W_S1_V5) (or (not MW_S1_V4) W_S1_V4) (or (not MW_S2_V1) W_S2_V1) (or (not MW_S2_V3) W_S2_V3) (or (not MW_S2_V2) W_S2_V2) (or (not MW_S2_V5) W_S2_V5))))
 (or (not $x1555) (not $x566) (and (= ?x275 ?x5510) $x3192 (= ?x3141 ?x4951) $x1275 $x1297))))))))))))))))))))))))))))))))))))))))))))))))))))))))))))))))))))))))))))))))))))))))))))))))))))))))))))))))))))))))
 )
 )
 )
 )
 )
 )
 )
 )
 )
 )
 )
 )
 )
 )
 )
 )
 )
 )
 )
 )
 )
 )
 )
 )
 )
 )
 )
 )
 )
 )
 )
 )
 )
 )
 )
 )
 )
 )
 )
 )
 )
 )
 )
 )
 )
 )
 )
 )
 )
 )
 )
 )
 )
 )
 )
 )
 ))
 (let (($x4268 (not (or (and W_S2_V2 R_E1_V2) (and W_S2_V5 R_E1_V5) R_E1_V4))))
 (let (($x2373 (= DISJ_W_S2_R_E1 $x4268)))
 (let (($x123 (and W_S2_V5 R_S2_V5)))
 (let (($x1761 (and W_S2_V2 R_S2_V2)))
 (let (($x2116 (and W_S2_V3 R_S2_V3)))
 (let (($x2453 (and W_S2_V1 R_S2_V1)))
 (let (($x2468 (= DISJ_W_S2_R_S2 (not (or $x2453 $x2116 $x1761 $x123 R_S2_V4)))))
 (let (($x723 (and W_S2_V5 R_S1_V5)))
 (let (($x3062 (and W_S2_V2 R_S1_V2)))
 (let (($x5411 (and W_S2_V3 R_S1_V3)))
 (let (($x816 (and W_S2_V1 R_S1_V1)))
 (let (($x3415 (= DISJ_W_S2_R_S1 (not (or $x816 $x5411 $x3062 $x723 R_S1_V4)))))
 (let (($x2042 (= DISJ_W_S1_W_S2 (not (or W_S2_V3 (and W_S1_V5 W_S2_V5) W_S1_V4)))))
 (let (($x1773 (not R_E1_V3)))
 (let (($x956 (not (or R_S2_V3 (and W_S1_V5 R_S2_V5) (and W_S1_V4 R_S2_V4)))))
 (let (($x1351 (= DISJ_W_S1_R_S2 $x956)))
 (let (($x1409 (or R_S1_V3 (and W_S1_V5 R_S1_V5) (and W_S1_V4 R_S1_V4))))
 (let (($x1667 (= DISJ_W_S1_R_S1 (not $x1409))))
 (let (($x27 (not W_S2_V2)))
 (let (($x605 (not R_S2_V1)))
 (let (($x5101 (and $x605 $x3861 $x27 $x4040 DISJ_W_S2_R_S1)))
 (let (($x5098 (not R_S2_V5)))
 (let (($x826 (and $x605 $x5098 $x27 $x1792 DISJ_W_S2_R_S1)))
 (let (($x4292 (and $x605 $x27 $x4040 $x1792 DISJ_W_S2_R_S1)))
 (let (($x4196 (and $x605 $x3861 $x5098 $x27 DISJ_W_S2_R_S1)))
 (let (($x929 (and $x605 $x5785 $x27 $x4040 DISJ_W_S2_R_S1)))
 (let (($x792 (and $x605 $x5098 $x5785 $x27 DISJ_W_S2_R_S1)))
 (let (($x3162 (and $x605 $x5785 $x27 $x1792 DISJ_W_S2_R_S1)))
 (let (($x520 (and $x605 $x3861 $x5785 $x27 DISJ_W_S2_R_S1)))
 (let (($x747 (and $x5098 $x1801 $x1792 DISJ_W_S2_R_S1)))
 (let (($x3661 (and $x5098 $x5785 $x1792 DISJ_W_S2_R_S1)))
 (let (($x5955 (and $x5785 $x2137 $x1792 DISJ_W_S2_R_S1)))
 (let (($x5114 (and DISJ_W_S1_W_S2 DISJ_W_S2_R_S1)))
 (let (($x2367 (and $x3861 $x1801 $x4040 DISJ_W_S2_R_S1)))
 (let (($x3464 (and (not W_S2_V1) $x27)))
 (let (($x5854 (and $x27 DISJ_W_S2_R_S2)))
 (let (($x1970 (or $x2537 $x5854 $x2688 $x1839 $x3464 $x2367 $x5114 $x3630 $x5955 $x3661 $x747 $x520 $x3162 $x792 $x929 $x4196 $x4292 $x826 $x5101)))
 (let (($x1281 (and $x3088 DISJ_W_S1_R_S1)))
 (let (($x3172 (and $x27 DISJ_W_S2_R_S1 DISJ_W_S1_R_S1)))
 (let (($x1381 (or $x3172 $x3464 $x1281)))
 (let (($x2578 (not W_S1_V2)))
 (let (($x889 (not W_S1_V1)))
 (let (($x3682 (not R_E1_V1)))
 (let (($x2666 (and DISJ_W_S1_R_E1 $x3682 $x889 $x2578 $x1381 $x1970 W_S1_V3 W_S2_V4 $x1667 $x1351 $x1773 $x2042 $x3415 $x2468 $x2373 $x4735 $x5719 $x5870)))
 (and $x2666 $x1932 $x1010 $x2543 $x230 $x5100 $x947 $x1034 $x2474 $x5494)))))))))))))))))))))))))))))))))))))))))))))))))))))))))))))))))))))))
(check-sat)
